47421.0
10, 13, 23, 32, 48, 121, 134, 146, 147, 164, 216, 245, 249, 262, 269, 273, 281, 334, 347, 362, 379, 382, 419, 421, 426, 440, 446, 455, 463, 473, 476, 493, 494, 497, 539, 573, 585, 592, 599, 603, 610, 612, 645, 651, 657, 664, 696, 703, 708, 732, 736, 737, 739, 743, 753, 770, 775, 786, 821, 822, 824, 830, 836, 838, 845, 849, 855, 886, 887, 937, 945, 968, 989